Maximize
	- 2 x1 + 3 x2 - 3 x3 - 1 x5 + 5 x6 
Maximize
	+ 5 x1 + 4 x2 - 3 x4 - 3 x5 - 4 x6 
Maximize
	+ 6 x1 + 5 x2 + 3 x4 + 1 x5 + 4 x6 
Subject To
	+ 1 x1 + 6 x2 + 4 x3 + 5 x5 - 4 x6 <= 7
Bounds
	0 <= x1 <= 4
	0 <= x2 <= 4
	0 <= x3 <= 4
	0 <= x4 <= 4
	0 <= x5 <= 4
	0 <= x6 <= 4
Integers
	x1 x2 x3 x4 x5 x6 
End